NAME: GRASP_10_3
TYPE: TSP
COMMENT: line_10_3
DIMENSION: 10
EDGE_WEIGHT_TYPE: EUC_2D
NODE_COORD_SECTION
1 0.0 68.0
2 0.0 61.0
3 0.0 42.0
4 0.0 14.0
5 0.0 18.0
6 0.0 79.0
7 0.0 51.0
8 0.0 28.0
9 0.0 24.0
10 0.0 14.0
